20 63 
1 5 1
1 6 1
1 8 1
1 9 1
1 10 1
1 11 1
1 13 1
1 14 1
1 15 1
1 17 1
2 5 1
2 6 1
2 7 1
2 8 1
2 9 1
2 10 1
2 11 1
2 15 1
2 16 1
2 17 1
2 18 1
3 5 1
3 6 1
3 7 1
3 10 1
3 11 1
3 13 1
3 17 1
4 5 1
4 18 1
5 6 1
5 7 1
5 8 1
5 10 1
5 12 1
5 14 1
5 18 1
5 20 1
6 7 1
6 9 1
6 14 1
6 19 1
7 8 1
7 9 1
7 14 1
7 15 1
7 16 1
7 20 1
8 19 1
9 12 1
9 17 1
9 20 1
10 11 1
10 12 1
11 13 1
11 15 1
12 13 1
13 16 1
14 18 1
14 19 1
15 16 1
18 19 1
18 20 1
